32      4       
18      13      12      14      
0       0       0       0       0       3       2       3       5       
9       7       1       1       7       1       4       
5       1       1       6       1       1       4       
4       2       1       1       1       2       6       11      
5       7       1       6       1       2       6       11      
4       10      2       1       1       2       7       10      
10      5       8       2       1       4       8       13      14      19      
4       1       1       6       1       3       9       16      21      
9       8       2       1       2       2       12      17      
5       6       1       7       1       4       15      17      20      21      
6       2       6       1       1       2       15      16      
4       8       1       4       1       4       15      20      22      25      
8       6       1       1       1       2       15      20      
6       5       6       1       1       4       17      20      21      23      
7       4       5       3       1       4       18      24      29      31      
3       3       1       1       2       3       17      20      26      
7       2       2       4       3       3       25      28      30      
4       3       7       1       6       2       23      30      
3       1       7       6       1       4       27      28      29      30      
1       2       1       1       1       3       27      28      30      
5       7       4       2       1       3       27      28      29      
6       1       6       6       7       3       27      29      30      
7       1       11      1       6       2       26      28      
4       12      1       5       6       2       26      28      
10      2       4       1       5       2       27      29      
4       1       3       1       12      1       27      
3       1       1       1       10      1       32      
7       17      1       9       2       1       32      
2       2       5       1       14      1       32      
1       1       2       2       5       1       32      
5       7       5       7       3       1       32      
0       0       0       0       0       0       
